DATASET = "thpack5";
INSTANCE = "090";

WIDTH = 233;
HEIGHT = 220;
LENGTH = 587;

NO_OF_SHAPES = 12;
size = [|
  91,52,33 |
  87,81,63 |
  113,79,45 |
  114,52,45 |
  110,90,66 |
  81,41,31 |
  108,67,37 |
  118,82,57 |
  96,60,30 |
  43,42,36 |
  93,78,77 |
  85,62,25 |
|];

verticality = [|
  0,1,1 |
  1,1,1 |
  0,1,1 |
  0,1,1 |
  1,1,1 |
  0,1,1 |
  0,1,1 |
  0,1,1 |
  0,0,1 |
  1,1,1 |
  1,1,1 |
  0,0,1 |
|];

box_count = [
  7,
  6,
  15,
  8,
  4,
  8,
  9,
  9,
  7,
  11,
  8,
  7,
];
